; benchmark generated from python API
(set-info :status unknown)
(declare-fun bool.b14 () Bool)
(declare-fun bool.b5 () Bool)
(declare-fun bool.b10 () Bool)
(declare-fun bool.b8 () Bool)
(declare-fun bool.b12 () Bool)
(declare-fun bool.b23 () Bool)
(declare-fun x5 () Real)
(declare-fun x3 () Real)
(declare-fun bool.b7 () Bool)
(declare-fun x4 () Real)
(declare-fun bool.b6 () Bool)
(declare-fun bool.b22 () Bool)
(assert
 (forall ((?lambda Real) )(let (($x11557 (and (and (not bool.b8) (not bool.b10)) (and (not bool.b5) (not bool.b14)))))
 (let (($x22328 (not bool.b12)))
 (let (($x25759 (not (and (not bool.b5) bool.b23))))
 (let (($x10847 (<= (* (- 1.0) (+ x5 (* 1.0 ?lambda))) (- 10.0))))
 (let (($x38991 (and (<= (* 1.0 (+ x3 (* (/ (- 1.0) 5.0) ?lambda))) 0.0) (and $x10847 (not (and $x25759 (not (and $x22328 $x11557))))))))
 (let (($x39092 (and (not (<= (* 1.0 (+ x4 (* 60.0 ?lambda))) 4820.0)) (and bool.b7 $x38991))))
 (let (($x19810 (not (and (not bool.b6) (not (and bool.b5 (not bool.b7)))))))
 (let (($x850 (not bool.b22)))
 (let (($x14788 (exists ((?lambdaprime Real) )(! (let (($x850 (not bool.b22)))
 (let (($x20307 (not (<= (* 1.0 (+ x3 (* (/ (- 1.0) 5.0) ?lambdaprime))) 33.0))))
 (let (($x19411 (and $x20307 (not (<= (* (- 1.0) (+ x4 (* 60.0 ?lambdaprime))) (- 4910.0))))))
 (let (($x274 (not (<= (* 1.0 (+ x3 (* (/ (- 1.0) 5.0) ?lambdaprime))) 40.0))))
 (let (($x13904 (and (not (and $x274 $x19411)) (and $x850 (and (not bool.b7) (and (not bool.b5) bool.b6))))))
 (let (($x29778 (and $x20307 (not (<= (* (- 1.0) (+ x4 (* 60.0 ?lambdaprime))) (- 4500.0))))))
 (let (($x19453 (and (not (and $x274 $x29778)) (and $x850 (and bool.b7 (and (not bool.b5) (not bool.b6)))))))
 (let (($x36414 (and (not (<= (* (- 1.0) (+ x4 (* 60.0 ?lambdaprime))) (- 4100.0))) $x20307)))
 (let (($x12112 (and (not (and $x274 $x36414)) (and $x850 (and (not bool.b7) (and (not bool.b5) (not bool.b6)))))))
 (let (($x31279 (and (not (<= (* (- 1.0) (+ x5 (* 1.0 ?lambdaprime))) (- 10.0))) (and (and (not $x12112) (not $x19453)) (not $x13904)))))
 (and (and (<= 0.0 ?lambdaprime) (<= ?lambdaprime ?lambda)) (not $x31279)))))))))))) :qid k!27))
 ))
 (or (or $x14788 (< ?lambda 0.0)) (not (and $x850 (and $x19810 (not (and bool.b6 (not $x39092)))))))))))))))))
 )
(check-sat)
